benchmarks_CP/INST_36x36/25/inst36x36_25_36.dzn
S=6;
start=[|
-1,	19,	-1,	29,	-1,	9,	-1,	-1,	-1,	21,	-1,	-1,	3,	31,	-1,	34,	-1,	-1,	-1,	-1,	36,	4,	-1,	20,	-1,	5,	12,	-1,	-1,	-1,	6,	-1,	-1,	-1,	25,	-1|
-1,	-1,	-1,	-1,	-1,	-1,	-1,	24,	-1,	-1,	-1,	5,	-1,	-1,	-1,	-1,	-1,	-1,	19,	-1,	-1,	33,	-1,	28,	4,	-1,	8,	-1,	-1,	-1,	-1,	-1,	-1,	-1,	-1,	-1|
-1,	-1,	-1,	-1,	3,	-1,	-1,	18,	-1,	-1,	-1,	-1,	-1,	-1,	8,	33,	-1,	-1,	23,	-1,	-1,	-1,	-1,	-1,	-1,	-1,	34,	-1,	-1,	-1,	-1,	-1,	-1,	-1,	-1,	-1|
-1,	-1,	-1,	-1,	15,	-1,	-1,	-1,	-1,	-1,	-1,	-1,	-1,	7,	-1,	-1,	-1,	-1,	-1,	17,	-1,	-1,	-1,	-1,	33,	10,	-1,	-1,	-1,	21,	-1,	-1,	-1,	1,	-1,	-1|
17,	-1,	-1,	8,	-1,	-1,	25,	-1,	-1,	-1,	-1,	-1,	27,	-1,	-1,	18,	24,	-1,	-1,	-1,	11,	-1,	32,	-1,	-1,	-1,	22,	-1,	-1,	6,	-1,	-1,	-1,	-1,	-1,	-1|
-1,	-1,	14,	-1,	-1,	-1,	-1,	-1,	27,	-1,	-1,	-1,	-1,	-1,	-1,	2,	-1,	-1,	35,	-1,	3,	-1,	29,	18,	36,	-1,	-1,	-1,	-1,	-1,	-1,	22,	-1,	21,	-1,	-1|
-1,	-1,	-1,	-1,	-1,	-1,	-1,	-1,	29,	8,	-1,	-1,	-1,	24,	-1,	-1,	-1,	-1,	-1,	-1,	-1,	-1,	23,	-1,	32,	6,	-1,	-1,	-1,	-1,	-1,	-1,	-1,	-1,	2,	-1|
36,	10,	-1,	2,	-1,	3,	-1,	-1,	-1,	-1,	-1,	-1,	28,	27,	-1,	31,	-1,	-1,	21,	-1,	-1,	32,	33,	-1,	-1,	-1,	-1,	-1,	-1,	34,	-1,	-1,	-1,	-1,	30,	-1|
-1,	-1,	-1,	-1,	-1,	11,	-1,	-1,	-1,	-1,	-1,	-1,	-1,	-1,	10,	-1,	-1,	-1,	-1,	-1,	-1,	-1,	-1,	-1,	-1,	31,	-1,	-1,	35,	-1,	27,	-1,	22,	-1,	3,	-1|
-1,	-1,	-1,	-1,	-1,	-1,	-1,	-1,	-1,	-1,	-1,	10,	-1,	9,	-1,	-1,	-1,	35,	-1,	-1,	-1,	-1,	2,	-1,	1,	-1,	-1,	-1,	7,	-1,	-1,	-1,	20,	-1,	-1,	-1|
26,	-1,	20,	-1,	-1,	19,	-1,	28,	31,	35,	-1,	-1,	-1,	16,	-1,	-1,	-1,	-1,	-1,	8,	-1,	-1,	-1,	-1,	-1,	29,	-1,	-1,	-1,	-1,	-1,	10,	-1,	-1,	-1,	-1|
-1,	-1,	-1,	-1,	-1,	-1,	18,	-1,	-1,	-1,	-1,	24,	-1,	25,	-1,	-1,	-1,	2,	9,	6,	31,	-1,	-1,	-1,	-1,	-1,	-1,	-1,	22,	-1,	-1,	-1,	21,	-1,	4,	7|
-1,	-1,	7,	-1,	21,	-1,	-1,	-1,	35,	-1,	12,	-1,	-1,	-1,	-1,	25,	3,	24,	-1,	-1,	-1,	-1,	-1,	-1,	22,	-1,	-1,	-1,	-1,	-1,	31,	-1,	-1,	-1,	10,	-1|
-1,	20,	-1,	-1,	-1,	10,	3,	22,	17,	1,	-1,	-1,	-1,	-1,	-1,	-1,	33,	15,	-1,	7,	-1,	-1,	-1,	16,	-1,	9,	29,	-1,	-1,	-1,	11,	-1,	-1,	-1,	-1,	32|
-1,	-1,	30,	-1,	-1,	-1,	29,	23,	-1,	-1,	-1,	-1,	21,	-1,	-1,	-1,	-1,	-1,	20,	-1,	19,	25,	-1,	-1,	-1,	-1,	27,	-1,	-1,	-1,	-1,	-1,	-1,	-1,	-1,	-1|
22,	-1,	-1,	-1,	-1,	-1,	15,	25,	-1,	-1,	18,	-1,	17,	13,	-1,	-1,	30,	29,	-1,	-1,	-1,	-1,	-1,	-1,	-1,	-1,	-1,	-1,	-1,	-1,	-1,	-1,	35,	-1,	-1,	34|
-1,	-1,	-1,	33,	-1,	-1,	-1,	-1,	-1,	-1,	9,	-1,	-1,	-1,	-1,	-1,	-1,	-1,	-1,	-1,	-1,	-1,	-1,	31,	26,	-1,	16,	-1,	-1,	25,	29,	2,	-1,	-1,	-1,	-1|
-1,	-1,	-1,	-1,	-1,	16,	19,	-1,	-1,	-1,	-1,	-1,	-1,	34,	-1,	12,	-1,	8,	-1,	-1,	-1,	-1,	24,	-1,	-1,	2,	-1,	-1,	-1,	35,	-1,	-1,	-1,	25,	-1,	-1|
32,	-1,	-1,	-1,	27,	-1,	-1,	-1,	-1,	-1,	-1,	-1,	-1,	1,	-1,	-1,	-1,	-1,	-1,	-1,	-1,	-1,	-1,	-1,	-1,	-1,	-1,	-1,	12,	-1,	-1,	24,	-1,	-1,	-1,	21|
-1,	30,	-1,	5,	-1,	-1,	27,	-1,	23,	-1,	-1,	33,	-1,	-1,	3,	-1,	-1,	19,	-1,	2,	-1,	-1,	22,	34,	10,	-1,	-1,	-1,	-1,	-1,	-1,	-1,	-1,	-1,	26,	8|
-1,	-1,	-1,	10,	28,	-1,	-1,	-1,	-1,	-1,	-1,	17,	-1,	30,	-1,	-1,	-1,	-1,	-1,	29,	-1,	-1,	-1,	-1,	16,	33,	-1,	-1,	8,	-1,	-1,	-1,	-1,	-1,	-1,	-1|
-1,	-1,	-1,	23,	7,	-1,	-1,	-1,	-1,	5,	25,	-1,	-1,	-1,	-1,	24,	-1,	-1,	-1,	30,	-1,	-1,	-1,	-1,	-1,	-1,	-1,	-1,	-1,	22,	-1,	-1,	-1,	-1,	-1,	-1|
-1,	-1,	-1,	-1,	33,	12,	-1,	-1,	13,	-1,	-1,	-1,	-1,	32,	-1,	-1,	-1,	-1,	-1,	-1,	-1,	-1,	-1,	-1,	-1,	-1,	19,	-1,	5,	-1,	-1,	-1,	-1,	-1,	-1,	-1|
24,	-1,	-1,	22,	-1,	-1,	-1,	-1,	-1,	-1,	6,	-1,	-1,	-1,	17,	-1,	14,	34,	-1,	-1,	-1,	-1,	5,	-1,	-1,	1,	-1,	3,	-1,	-1,	-1,	-1,	-1,	-1,	19,	-1|
31,	28,	-1,	-1,	-1,	-1,	-1,	-1,	-1,	-1,	-1,	-1,	-1,	-1,	-1,	-1,	-1,	-1,	13,	-1,	18,	34,	-1,	-1,	-1,	24,	-1,	8,	-1,	-1,	-1,	-1,	-1,	-1,	-1,	-1|
-1,	-1,	-1,	25,	-1,	-1,	13,	-1,	18,	-1,	-1,	-1,	-1,	23,	-1,	-1,	-1,	-1,	-1,	-1,	-1,	-1,	21,	-1,	-1,	-1,	-1,	-1,	-1,	12,	-1,	33,	-1,	6,	29,	-1|
-1,	-1,	-1,	-1,	-1,	30,	-1,	-1,	-1,	-1,	31,	25,	-1,	-1,	-1,	-1,	34,	-1,	-1,	-1,	-1,	29,	-1,	4,	13,	-1,	35,	-1,	-1,	27,	-1,	-1,	-1,	-1,	-1,	-1|
-1,	-1,	32,	-1,	-1,	-1,	-1,	-1,	-1,	-1,	-1,	-1,	-1,	-1,	9,	-1,	-1,	13,	-1,	-1,	-1,	23,	-1,	-1,	-1,	-1,	-1,	26,	31,	-1,	-1,	-1,	-1,	-1,	-1,	4|
9,	-1,	-1,	-1,	-1,	23,	-1,	3,	-1,	-1,	-1,	-1,	24,	-1,	-1,	-1,	18,	-1,	-1,	-1,	20,	-1,	-1,	33,	2,	-1,	-1,	-1,	10,	-1,	-1,	21,	-1,	7,	-1,	-1|
-1,	11,	-1,	-1,	-1,	-1,	-1,	-1,	-1,	-1,	-1,	-1,	2,	-1,	28,	19,	-1,	-1,	-1,	-1,	-1,	30,	14,	5,	-1,	-1,	-1,	-1,	25,	-1,	-1,	-1,	-1,	36,	18,	-1|
12,	34,	-1,	-1,	-1,	2,	-1,	-1,	10,	-1,	-1,	-1,	-1,	-1,	-1,	-1,	-1,	-1,	-1,	-1,	-1,	-1,	-1,	-1,	-1,	-1,	13,	-1,	-1,	-1,	-1,	26,	-1,	-1,	-1,	-1|
18,	3,	-1,	-1,	-1,	-1,	-1,	-1,	-1,	-1,	24,	-1,	-1,	-1,	-1,	-1,	-1,	-1,	-1,	-1,	-1,	-1,	-1,	-1,	-1,	-1,	-1,	-1,	-1,	-1,	-1,	-1,	-1,	9,	-1,	-1|
-1,	24,	-1,	14,	20,	32,	5,	-1,	-1,	-1,	-1,	-1,	35,	3,	-1,	-1,	-1,	26,	-1,	-1,	-1,	36,	-1,	-1,	17,	-1,	-1,	22,	-1,	-1,	2,	-1,	-1,	18,	7,	-1|
-1,	36,	5,	-1,	-1,	-1,	-1,	-1,	-1,	25,	13,	-1,	-1,	-1,	-1,	-1,	-1,	-1,	-1,	24,	-1,	22,	-1,	-1,	-1,	-1,	1,	-1,	23,	8,	-1,	-1,	-1,	12,	-1,	-1|
-1,	-1,	-1,	-1,	-1,	-1,	-1,	-1,	8,	-1,	26,	-1,	32,	-1,	34,	-1,	-1,	-1,	1,	-1,	35,	-1,	-1,	-1,	-1,	36,	-1,	2,	-1,	-1,	21,	-1,	16,	-1,	-1,	-1|
-1,	-1,	-1,	-1,	-1,	25,	20,	-1,	-1,	-1,	11,	-1,	-1,	5,	24,	27,	-1,	-1,	-1,	-1,	29,	-1,	9,	-1,	-1,	-1,	-1,	-1,	34,	31,	-1,	-1,	-1,	-1,	-1,	-1|];
